99
0 3 0
1 3 2
2 4 0
3 5 1
4 6 2
5 7 1
6 7 2
7 7 4
8 7 6
9 8 2
10 8 4
11 8 5
12 9 5
13 10 4
14 10 5
15 10 8
16 11 0
17 11 1
18 11 3
19 11 4
20 11 9
21 12 0
22 12 6
23 12 11
24 13 1
25 13 2
26 13 5
27 13 9
28 13 12
29 14 7
30 14 8
31 14 9
32 15 3
33 15 6
34 15 7
35 15 8
36 15 10
37 15 11
38 15 14
39 16 0
40 16 2
41 16 11
42 16 12
43 17 1
44 17 2
45 17 6
46 17 7
47 17 11
48 17 12
49 17 16
50 18 0
51 18 1
52 18 4
53 18 6
54 18 9
55 18 16
56 18 17
57 19 2
58 19 4
59 19 9
60 19 10
61 19 11
62 19 16
63 19 17
64 20 0
65 20 4
66 20 5
67 20 11
68 20 14
69 20 16
70 21 0
71 21 2
72 21 8
73 21 12
74 21 15
75 21 20
76 22 2
77 22 5
78 22 12
79 22 14
80 22 15
81 22 19
82 23 1
83 23 4
84 23 9
85 23 10
86 23 12
87 23 19
88 24 0
89 24 2
90 24 4
91 24 5
92 24 7
93 24 8
94 24 12
95 24 14
96 24 17
97 24 18
98 24 20
